min
    +1 x_{1,2}
    +4 x_{1,3}
    +1 x_{2,4}
    +1 x_{3,4}
st
    + x_{1,2} + x_{1,3} = 2
    + x_{1,2} + x_{2,4} = 2
    + x_{1,3} + x_{3,4} = 2
    + x_{2,4} + x_{3,4} = 2
bounds
    0 <= x_{1,2} <= 1
    0 <= x_{1,3} <= 1
    0 <= x_{2,4} <= 1
    0 <= x_{3,4} <= 1
end
